J=10;
K=10;
E= [20, 22, 6, 2, 26, 32, 9, 0, 27, 20] ;
A= [1.0, 1.0, 0.2, 0.3, 0.2, 0.3, 0.0, 0.6, 1.0, 0.1] ;
G= [1, 0, 0, 0, 1, 0, 0, 1, 1, 0] ;
F= [1, 13, 7, 12, 13, 14, 25, 6, 9, 0] ;
V= [0.42, 0.5, 0.6, 0.4, 0.21, 0.49, 0.42, 0.66, 0.29, 0.87] ;
P_inf= [41, 57, 22, 52, 86, 114, 63, 100, 105, 17] ;
P_sup= [390, 414, 366, 329, 582, 468, 433, 517, 512, 368] ;
Sup= [218, 32, 108, 205, 257, 85, 80, 106, 267, 117] ;
Inf= [18, 169, 118, 188, 89, 147, 240, 42, 204, 59] ;
P0= [246, 0, 0, 0, 94, 0, 0, 490, 195, 0] ;
D= [353, 378, 354, 313, 78, 14, 83, 116, 19, 208] ;
R= [7, 64, 26, 71, 18, 66, 55, 14, 43, 57] ;